%chk=Left.chk
# hf/3-21g geom=connectivity

Title Card Required

0 2
 Au                 4.14324800    0.00000000   -8.28649600
 Au                 2.07162400    2.07162400   -8.28649600
 Au                 0.00000000    4.14324800   -8.28649600
 Au                 2.07162400   -2.07162400   -8.28649600
 Au                 0.00000000    0.00000000   -8.28649600
 Au                -2.07162400    2.07162400   -8.28649600
 Au                 0.00000000   -4.14324800   -8.28649600
 Au                -2.07162400   -2.07162400   -8.28649600
 Au                -4.14324800    0.00000000   -8.28649600
 Au                 2.07162400    0.00000000   -6.21487200
 Au                 0.00000000    2.07162400   -6.21487200
 Au                 0.00000000   -2.07162400   -6.21487200
 Au                -2.07162400    0.00000000   -6.21487200
 Au                 4.14324800    0.00000000   -4.14324800
 Au                 2.07162400    2.07162400   -4.14324800
 Au                 0.00000000    4.14324800   -4.14324800
 Au                 2.07162400   -2.07162400   -4.14324800
 Au                 0.00000000    0.00000000   -4.14324800
 Au                -2.07162400    2.07162400   -4.14324800
 Au                 0.00000000   -4.14324800   -4.14324800
 Au                -2.07162400   -2.07162400   -4.14324800
 Au                -4.14324800    0.00000000   -4.14324800
 Au                 2.07162400    0.00000000   -2.07162400
 Au                 0.00000000    2.07162400   -2.07162400
 Au                 0.00000000   -2.07162400   -2.07162400
 Au                -2.07162400    0.00000000   -2.07162400
 Au                 0.00000000    0.00000000    0.00000000
 S                  0.00000000    0.00000000    2.30000000

 1 4 1.0 2 1.0 10 1.0
 2 5 1.0 3 1.0 10 1.0 11 1.0
 3 6 1.0 11 1.0
 4 7 1.0 5 1.0 12 1.0 10 1.0
 5 8 1.0 6 1.0 11 1.0 13 1.0 12 1.0 10 1.0
 6 9 1.0 11 1.0 13 1.0
 7 8 1.0 12 1.0
 8 9 1.0 13 1.0 12 1.0
 9 13 1.0
 10 12 1.0 11 1.0 18 1.0 17 1.0 14 1.0 15 1.0
 11 13 1.0 18 1.0 15 1.0 16 1.0 19 1.0
 12 13 1.0 18 1.0 21 1.0 20 1.0 17 1.0
 13 18 1.0 22 1.0 21 1.0 19 1.0
 14 15 1.0 17 1.0 23 1.0
 15 16 1.0 18 1.0 23 1.0 24 1.0
 16 19 1.0 24 1.0
 17 20 1.0 18 1.0 25 1.0 23 1.0
 18 21 1.0 19 1.0 24 1.0 23 1.0 26 1.0 25 1.0
 19 22 1.0 24 1.0 26 1.0
 20 21 1.0 25 1.0
 21 22 1.0 26 1.0 25 1.0
 22 26 1.0
 23 24 1.0 25 1.0 27 1.0
 24 26 1.0 27 1.0
 25 26 1.0 27 1.0
 26 27 1.0
 27 28 1.0
 28

