%chk=Au_S.chk
%nprocshared=12
#p opt=(modredundant,maxcycle=1000) b3lyp/genecp nosymm scf=qc
geom=connectivity

Au_S

0 1
 S                  0.03683200    2.92844500    0.01221100
 Au                -2.89166500    2.96522500    2.33415300
 Au                -2.96530700   -2.89162400    2.30053000
 Au                 2.89171800   -2.96524500    2.28584700
 Au                 2.96533900    2.89166600    2.31947100
 Au                -2.92848600    0.03678000    2.31734200
 Au                 0.03683200    2.92844500    2.32681100
 Au                -0.03682100   -2.92848600    2.29318900
 Au                 2.92847600   -0.03679000    2.30265900
 Au                 0.00000000    0.00000000    2.31000000
 Au                -1.40397400    4.39910300    4.40977400
 Au                -1.47761600   -1.45779700    4.37615100
 Au                 4.37936700   -1.53134600    4.36146800
 Au                 4.45298900    4.32555400    4.39509100
 Au                -1.44079500    1.47065800    4.39296200
 Au                 1.52452300    4.36232400    4.40243200
 Au                 1.45087100   -1.49457700    4.36881000
 Au                 4.41623000    1.39709900    4.37828000
 Au                 1.48770200    1.43387900    4.38562100
 Au                 0.08371800    5.83299200    6.48539500
 Au                 0.01008600   -0.02390900    6.45177100
 Au                 5.86712100   -0.09746800    6.43708900
 Au                 5.94074200    5.75943300    6.47071200
 Au                 0.04690700    2.90454700    6.46858300
 Au                 3.01224500    5.79621200    6.47805300
 Au                 2.93862400   -0.06068800    6.44443100
 Au                 5.90388000    2.83097700    6.45390000
 Au                 2.97538300    2.86776700    6.46124200
 Au                -1.39388800    4.37520500    8.55154400
 Au                -1.46753100   -1.48169600    8.51792200
 Au                 4.38951500   -1.55525500    8.50324000
 Au                 4.46313600    4.30165600    8.53686300
 Au                -1.43070900    1.44674900    8.53473400
 Au                 1.53460800    4.33842500    8.54420400
 Au                 1.46095600   -1.51848600    8.51058000
 Au                 4.42627400    1.37320000    8.52005100
 Au                 1.49777700    1.40997000    8.52739200

 1 7 1.0
 2 15 1.0 11 1.0 7 1.0 6 1.0
 3 12 1.0 8 1.0 6 1.0
 4 17 1.0 13 1.0 9 1.0 8 1.0
 5 19 1.0 18 1.0 16 1.0 14 1.0 9 1.0 7 1.0
 6 15 1.0 12 1.0 10 1.0
 7 19 1.0 16 1.0 15 1.0 11 1.0 10 1.0
 8 17 1.0 12 1.0 10 1.0
 9 19 1.0 18 1.0 17 1.0 13 1.0 10 1.0
 10 19 1.0 17 1.0 15 1.0 12 1.0
 11 24 1.0 20 1.0 16 1.0 15 1.0
 12 21 1.0 17 1.0 15 1.0
 13 26 1.0 22 1.0 18 1.0 17 1.0
 14 28 1.0 27 1.0 25 1.0 23 1.0 18 1.0 16 1.0
 15 24 1.0 21 1.0 19 1.0
 16 28 1.0 25 1.0 24 1.0 20 1.0 19 1.0
 17 26 1.0 21 1.0 19 1.0
 18 28 1.0 27 1.0 26 1.0 22 1.0 19 1.0
 19 28 1.0 26 1.0 24 1.0 21 1.0
 20 34 1.0 29 1.0 25 1.0 24 1.0
 21 37 1.0 35 1.0 33 1.0 30 1.0 26 1.0 24 1.0
 22 36 1.0 31 1.0 27 1.0 26 1.0
 23 32 1.0 27 1.0 25 1.0
 24 37 1.0 34 1.0 33 1.0 29 1.0 28 1.0
 25 34 1.0 32 1.0 28 1.0
 26 37 1.0 36 1.0 35 1.0 31 1.0 28 1.0
 27 36 1.0 32 1.0 28 1.0
 28 37 1.0 36 1.0 34 1.0 32 1.0
 29 34 1.0 33 1.0
 30 35 1.0 33 1.0
 31 36 1.0 35 1.0
 32 36 1.0 34 1.0
 33 37 1.0
 34 37 1.0
 35 37 1.0
 36 37 1.0
 37

X 37 F
X 36 F
X 35 F
X 34 F
X 33 F
X 32 F
X 31 F
X 30 F
X 29 F
X 28 F
X 27 F
X 26 F
X 25 F
X 24 F
X 23 F
X 22 F
X 21 F
X 20 F
X 19 F
X 18 F
X 17 F
X 16 F
X 15 F
X 14 F
X 13 F
X 12 F
X 11 F
X 10 F
X 9 F
X 8 F
X 7 F
X 6 F
X 5 F
X 4 F
X 3 F
X 2 F
A 7 10 1 F
A 6 10 1 F
B 10 1 S 30 0.010000

37
6-31g(d,p)
****
1-36
S      3        1.00
       0.4409	                -0.7478
       0.2626			 0.8176
       0.0617			 0.8113
P      3        1.00
       0.6642			-0.0459
       0.1073			 0.3778
       0.0318			 0.7233
D      4        1.00
       1.3517	                 0.4787
       0.5149	                 0.4582
       0.1994	                 0.2203
       0.0776	                 0.0412
****

1-36
ECP10CE   4   68
L=4 COMPONENT
  6
    2    0.965700   -0.986902   -0.036453
    2    2.290400   -9.686306    0.089980
    2    6.438400  -32.572463   -0.136746
    2   16.364600 -118.530878    0.451632
    2   55.989300 -286.254646    0.371907
    1  171.101400  -51.274231    2.242298
L=0 COMPONENT
  8
    2    1.224800  -84.969303
    2    1.433600  280.177643
    2    1.892900 -354.643566
    2    2.696300  334.331909
    2    3.989900 -219.392605
    2    6.005500  170.858744
    1   14.582600   56.338731
    0   39.310700    6.409300
L=1 COMPONENT
  8
    2    0.906400   -6.911901   15.779047
    2    1.031100   72.125463  -23.146780
    2    1.328700 -114.975335    3.512895
    2    1.903700  123.616682   12.024899
    2    2.836400  -71.135709  -12.913723
    2    4.588400   79.016603    6.283896
    1   11.198100   51.287008   -0.405461
    0   32.295700    5.651983    0.054812
L=2 COMPONENT
  8
    2    0.293100   -0.113657   -0.016533
    2    1.030100   -2.404025    0.328001
    2    2.018600   62.581116  -11.521077
    2    3.439200  255.447176  -32.439090
    2    5.157900 -161.806480   18.860086
    2    2.514900 -175.770760   29.831210
    1    8.062400   63.620792   -0.309918
    0   41.028500    6.750320    0.072853
L=3 COMPONENT
  8
    2    0.433500  -47.607799   -0.895041
    2    0.509700  176.318029    3.139580
    2    0.579600 -168.676897   -2.813752
    2    0.771100   54.492446    0.687538
    2    2.593500   37.715393   -0.284013
    2    8.390700  -24.139676   -1.292557
    1    6.929400   49.168024    0.129708
    0   22.258900    4.759586   -0.005240




















